(declare-fun e () String)
(declare-fun c () String)
(declare-fun b () String)
(declare-fun d () String)
(declare-fun f () String)
(declare-fun h () String)
(assert (= (str.++ c h) (str.++ "e" f c b)))
(assert (= (str.++ "e" b) "e"))
(assert (= (str.++ h d "h" d) (str.++ e e "gcd")))

(check-sat)
